NAME: PointSet_Angle_15_10
TYPE: TSP
COMMENT: Points chosen discrete uniformly at random out of ${0, \ldots, 500}^2$.
DIMENSION: 15
EDGE_WEIGHT_TYPE: EUC_2D
NODE_COORD_SECTION
1 451 335
2 243 399
3 375 198
4 451 163
5 290 251
6 111 259
7 477 396
8 73 290
9 209 216
10 229 252
11 465 5
12 321 230
13 466 33
14 375 314
15 349 139
EOF
